N_J = 28;
N_H = 22;
N_D = 1;
y = 6;
a = 1;
b = 1;
D = [
[0, 0, 0, 0, 0, 0, 0, 0, 0, 0, 0, 0, 0, 0, 0, 0, 0, 0, 0, 0, 0, 0, 0],
[1, 1, 0, 0, 2, 4, 5, 5, 1, 1, 5, 4, 3, 1, 4, 1, 2, 4, 2, 5, 4, 3, 0],
[1, 1, 0, 0, 2, 4, 5, 5, 1, 1, 5, 4, 3, 1, 4, 1, 2, 4, 2, 5, 4, 3, 0],
[1, 1, 0, 0, 2, 4, 5, 5, 1, 1, 5, 4, 3, 1, 4, 1, 2, 4, 2, 5, 4, 3, 0],
[1, 1, 0, 0, 2, 4, 5, 5, 1, 1, 5, 4, 3, 1, 4, 1, 2, 4, 2, 5, 4, 3, 0],
[1, 1, 0, 0, 2, 4, 5, 5, 1, 1, 5, 4, 3, 1, 4, 1, 2, 4, 2, 5, 4, 3, 0],
[1, 1, 0, 0, 2, 4, 5, 5, 1, 1, 5, 4, 3, 1, 4, 1, 2, 4, 2, 5, 4, 3, 0],
[1, 1, 0, 0, 2, 4, 5, 5, 1, 1, 5, 4, 3, 1, 4, 1, 2, 4, 2, 5, 4, 3, 0],
[1, 1, 0, 0, 2, 4, 5, 5, 1, 1, 5, 4, 3, 1, 4, 1, 2, 4, 2, 5, 4, 3, 0],
[1, 1, 0, 0, 2, 4, 5, 5, 1, 1, 5, 4, 3, 1, 4, 1, 2, 4, 2, 5, 4, 3, 0],
[1, 1, 0, 0, 2, 4, 5, 5, 1, 1, 5, 4, 3, 1, 4, 1, 2, 4, 2, 5, 4, 3, 0],
[1, 1, 0, 0, 2, 4, 5, 5, 1, 1, 5, 4, 3, 1, 4, 1, 2, 4, 2, 5, 4, 3, 0],
[1, 1, 0, 0, 2, 4, 5, 5, 1, 1, 5, 4, 3, 1, 4, 1, 2, 4, 2, 5, 4, 3, 0],
[1, 1, 0, 0, 2, 4, 5, 5, 1, 1, 5, 4, 3, 1, 4, 1, 2, 4, 2, 5, 4, 3, 0],
[1, 1, 0, 0, 2, 4, 5, 5, 1, 1, 5, 4, 3, 1, 4, 1, 2, 4, 2, 5, 4, 3, 0],
[1, 1, 0, 0, 2, 4, 5, 5, 1, 1, 5, 4, 3, 1, 4, 1, 2, 4, 2, 5, 4, 3, 0],
[1, 1, 0, 0, 2, 4, 5, 5, 1, 1, 5, 4, 3, 1, 4, 1, 2, 4, 2, 5, 4, 3, 0],
[1, 1, 0, 0, 2, 4, 5, 5, 1, 1, 5, 4, 3, 1, 4, 1, 2, 4, 2, 5, 4, 3, 0],
[1, 1, 0, 0, 2, 4, 5, 5, 1, 1, 5, 4, 3, 1, 4, 1, 2, 4, 2, 5, 4, 3, 0],
[1, 1, 0, 0, 2, 4, 5, 5, 1, 1, 5, 4, 3, 1, 4, 1, 2, 4, 2, 5, 4, 3, 0],
[1, 1, 0, 0, 2, 4, 5, 5, 1, 1, 5, 4, 3, 1, 4, 1, 2, 4, 2, 5, 4, 3, 0],
[1, 1, 0, 0, 2, 4, 5, 5, 1, 1, 5, 4, 3, 1, 4, 1, 2, 4, 2, 5, 4, 3, 0],
[1, 1, 0, 0, 2, 4, 5, 5, 1, 1, 5, 4, 3, 1, 4, 1, 2, 4, 2, 5, 4, 3, 0],
[1, 1, 0, 0, 2, 4, 5, 5, 1, 1, 5, 4, 3, 1, 4, 1, 2, 4, 2, 5, 4, 3, 0],
[1, 1, 0, 0, 2, 4, 5, 5, 1, 1, 5, 4, 3, 1, 4, 1, 2, 4, 2, 5, 4, 3, 0],
[1, 1, 0, 0, 2, 4, 5, 5, 1, 1, 5, 4, 3, 1, 4, 1, 2, 4, 2, 5, 4, 3, 0],
[1, 1, 0, 0, 2, 4, 5, 5, 1, 1, 5, 4, 3, 1, 4, 1, 2, 4, 2, 5, 4, 3, 0],
[1, 1, 0, 0, 2, 4, 5, 5, 1, 1, 5, 4, 3, 1, 4, 1, 2, 4, 2, 5, 4, 3, 0],
[1, 1, 0, 0, 2, 4, 5, 5, 1, 1, 5, 4, 3, 1, 4, 1, 2, 4, 2, 5, 4, 3, 0]
];
M = 30;
I = [
[0, 0, 0, 0, 0, 0, 0, 0, 0, 0, 0, 0, 0, 0, 0, 0, 0, 0, 0, 0, 0, 0, 0],
[2, 3, 6, 4, 0, 0, 4, 3, 3, 4, 6, 4, 6, 4, 1, 3, 2, 0, 0, 0, 5, 5, 0],
[2, 3, 6, 4, 0, 0, 4, 3, 3, 4, 6, 4, 6, 4, 1, 3, 2, 0, 0, 0, 5, 5, 0],
[2, 3, 6, 4, 0, 0, 4, 3, 3, 4, 6, 4, 6, 4, 1, 3, 2, 0, 0, 0, 5, 5, 0],
[2, 3, 6, 4, 0, 0, 4, 3, 3, 4, 6, 4, 6, 4, 1, 3, 2, 0, 0, 0, 5, 5, 0],
[2, 3, 6, 4, 0, 0, 4, 3, 3, 4, 6, 4, 6, 4, 1, 3, 2, 0, 0, 0, 5, 5, 0],
[2, 3, 6, 4, 0, 0, 4, 3, 3, 4, 6, 4, 6, 4, 1, 3, 2, 0, 0, 0, 5, 5, 0],
[2, 3, 6, 4, 0, 0, 4, 3, 3, 4, 6, 4, 6, 4, 1, 3, 2, 0, 0, 0, 5, 5, 0],
[2, 3, 6, 4, 0, 0, 4, 3, 3, 4, 6, 4, 6, 4, 1, 3, 2, 0, 0, 0, 5, 5, 0],
[2, 3, 6, 4, 0, 0, 4, 3, 3, 4, 6, 4, 6, 4, 1, 3, 2, 0, 0, 0, 5, 5, 0],
[2, 3, 6, 4, 0, 0, 4, 3, 3, 4, 6, 4, 6, 4, 1, 3, 2, 0, 0, 0, 5, 5, 0],
[2, 3, 6, 4, 0, 0, 4, 3, 3, 4, 6, 4, 6, 4, 1, 3, 2, 0, 0, 0, 5, 5, 0],
[2, 3, 6, 4, 0, 0, 4, 3, 3, 4, 6, 4, 6, 4, 1, 3, 2, 0, 0, 0, 5, 5, 0],
[2, 3, 6, 4, 0, 0, 4, 3, 3, 4, 6, 4, 6, 4, 1, 3, 2, 0, 0, 0, 5, 5, 0],
[2, 3, 6, 4, 0, 0, 4, 3, 3, 4, 6, 4, 6, 4, 1, 3, 2, 0, 0, 0, 5, 5, 0],
[2, 3, 6, 4, 0, 0, 4, 3, 3, 4, 6, 4, 6, 4, 1, 3, 2, 0, 0, 0, 5, 5, 0],
[2, 3, 6, 4, 0, 0, 4, 3, 3, 4, 6, 4, 6, 4, 1, 3, 2, 0, 0, 0, 5, 5, 0],
[2, 3, 6, 4, 0, 0, 4, 3, 3, 4, 6, 4, 6, 4, 1, 3, 2, 0, 0, 0, 5, 5, 0],
[2, 3, 6, 4, 0, 0, 4, 3, 3, 4, 6, 4, 6, 4, 1, 3, 2, 0, 0, 0, 5, 5, 0],
[2, 3, 6, 4, 0, 0, 4, 3, 3, 4, 6, 4, 6, 4, 1, 3, 2, 0, 0, 0, 5, 5, 0],
[2, 3, 6, 4, 0, 0, 4, 3, 3, 4, 6, 4, 6, 4, 1, 3, 2, 0, 0, 0, 5, 5, 0],
[2, 3, 6, 4, 0, 0, 4, 3, 3, 4, 6, 4, 6, 4, 1, 3, 2, 0, 0, 0, 5, 5, 0],
[2, 3, 6, 4, 0, 0, 4, 3, 3, 4, 6, 4, 6, 4, 1, 3, 2, 0, 0, 0, 5, 5, 0],
[2, 3, 6, 4, 0, 0, 4, 3, 3, 4, 6, 4, 6, 4, 1, 3, 2, 0, 0, 0, 5, 5, 0],
[2, 3, 6, 4, 0, 0, 4, 3, 3, 4, 6, 4, 6, 4, 1, 3, 2, 0, 0, 0, 5, 5, 0],
[2, 3, 6, 4, 0, 0, 4, 3, 3, 4, 6, 4, 6, 4, 1, 3, 2, 0, 0, 0, 5, 5, 0],
[2, 3, 6, 4, 0, 0, 4, 3, 3, 4, 6, 4, 6, 4, 1, 3, 2, 0, 0, 0, 5, 5, 0],
[2, 3, 6, 4, 0, 0, 4, 3, 3, 4, 6, 4, 6, 4, 1, 3, 2, 0, 0, 0, 5, 5, 0],
[2, 3, 6, 4, 0, 0, 4, 3, 3, 4, 6, 4, 6, 4, 1, 3, 2, 0, 0, 0, 5, 5, 0]
];
F = [
[1, 0, 0, 1, 0, 0, 1, 0, 0, 0, 0, 1, 1, 0, 1, 0, 1, 1, 1, 1, 1, 1, 0],
[1, 0, 0, 1, 0, 0, 1, 0, 0, 0, 0, 1, 1, 0, 1, 0, 1, 1, 1, 1, 1, 1, 0],
[1, 0, 0, 1, 0, 0, 1, 0, 0, 0, 0, 1, 1, 0, 1, 0, 1, 1, 1, 1, 1, 1, 0],
[1, 0, 0, 1, 0, 0, 1, 0, 0, 0, 0, 1, 1, 0, 1, 0, 1, 1, 1, 1, 1, 1, 0],
[1, 0, 0, 1, 0, 0, 1, 0, 0, 0, 0, 1, 1, 0, 1, 0, 1, 1, 1, 1, 1, 1, 0],
[1, 0, 0, 1, 0, 0, 1, 0, 0, 0, 0, 1, 1, 0, 1, 0, 1, 1, 1, 1, 1, 1, 0],
[1, 0, 0, 1, 0, 0, 1, 0, 0, 0, 0, 1, 1, 0, 1, 0, 1, 1, 1, 1, 1, 1, 0],
[1, 0, 0, 1, 0, 0, 1, 0, 0, 0, 0, 1, 1, 0, 1, 0, 1, 1, 1, 1, 1, 1, 0],
[1, 0, 0, 1, 0, 0, 1, 0, 0, 0, 0, 1, 1, 0, 1, 0, 1, 1, 1, 1, 1, 1, 0],
[1, 0, 0, 1, 0, 0, 1, 0, 0, 0, 0, 1, 1, 0, 1, 0, 1, 1, 1, 1, 1, 1, 0],
[1, 0, 0, 1, 0, 0, 1, 0, 0, 0, 0, 1, 1, 0, 1, 0, 1, 1, 1, 1, 1, 1, 0],
[1, 0, 0, 1, 0, 0, 1, 0, 0, 0, 0, 1, 1, 0, 1, 0, 1, 1, 1, 1, 1, 1, 0],
[1, 0, 0, 1, 0, 0, 1, 0, 0, 0, 0, 1, 1, 0, 1, 0, 1, 1, 1, 1, 1, 1, 0],
[1, 0, 0, 1, 0, 0, 1, 0, 0, 0, 0, 1, 1, 0, 1, 0, 1, 1, 1, 1, 1, 1, 0],
[1, 0, 0, 1, 0, 0, 1, 0, 0, 0, 0, 1, 1, 0, 1, 0, 1, 1, 1, 1, 1, 1, 0],
[1, 0, 0, 1, 0, 0, 1, 0, 0, 0, 0, 1, 1, 0, 1, 0, 1, 1, 1, 1, 1, 1, 0],
[1, 0, 0, 1, 0, 0, 1, 0, 0, 0, 0, 1, 1, 0, 1, 0, 1, 1, 1, 1, 1, 1, 0],
[1, 0, 0, 1, 0, 0, 1, 0, 0, 0, 0, 1, 1, 0, 1, 0, 1, 1, 1, 1, 1, 1, 0],
[1, 0, 0, 1, 0, 0, 1, 0, 0, 0, 0, 1, 1, 0, 1, 0, 1, 1, 1, 1, 1, 1, 0],
[1, 0, 0, 1, 0, 0, 1, 0, 0, 0, 0, 1, 1, 0, 1, 0, 1, 1, 1, 1, 1, 1, 0],
[1, 0, 0, 1, 0, 0, 1, 0, 0, 0, 0, 1, 1, 0, 1, 0, 1, 1, 1, 1, 1, 1, 0],
[1, 0, 0, 1, 0, 0, 1, 0, 0, 0, 0, 1, 1, 0, 1, 0, 1, 1, 1, 1, 1, 1, 0],
[1, 0, 0, 1, 0, 0, 1, 0, 0, 0, 0, 1, 1, 0, 1, 0, 1, 1, 1, 1, 1, 1, 0],
[1, 0, 0, 1, 0, 0, 1, 0, 0, 0, 0, 1, 1, 0, 1, 0, 1, 1, 1, 1, 1, 1, 0],
[1, 0, 0, 1, 0, 0, 1, 0, 0, 0, 0, 1, 1, 0, 1, 0, 1, 1, 1, 1, 1, 1, 0],
[1, 0, 0, 1, 0, 0, 1, 0, 0, 0, 0, 1, 1, 0, 1, 0, 1, 1, 1, 1, 1, 1, 0],
[1, 0, 0, 1, 0, 0, 1, 0, 0, 0, 0, 1, 1, 0, 1, 0, 1, 1, 1, 1, 1, 1, 0],
[1, 0, 0, 1, 0, 0, 1, 0, 0, 0, 0, 1, 1, 0, 1, 0, 1, 1, 1, 1, 1, 1, 0],
[1, 0, 0, 1, 0, 0, 1, 0, 0, 0, 0, 1, 1, 0, 1, 0, 1, 1, 1, 1, 1, 1, 0]
];
N_P = 69;
n = [1, 3, 2, 1, 1, 2, 3, 3, 3, 1, 1, 1, 2, 3, 3, 3, 2, 3, 2, 1, 3, 3, 3, 3, 3, 2, 1, 3, 1, 1, 1, 2, 2, 3, 2, 2, 3, 2, 3, 2, 3, 3, 2, 3, 1, 3, 1, 3, 3, 2, 1, 1, 2, 1, 2, 2, 3, 3, 1, 1, 3, 3, 3, 3, 1, 3, 3, 2, 2];
p_C = [1, 3, 1, 3, 2, 3, 1, 1, 3, 3, 0, 1, 0, 2, 0, 0, 2, 3, 2, 2, 2, 0, 3, 2, 2, 2, 1, 0, 1, 0, 3, 2, 3, 3, 2, 2, 3, 2, 2, 1, 0, 0, 2, 2, 0, 3, 1, 3, 0, 0, 3, 2, 1, 2, 2, 0, 1, 3, 2, 2, 0, 0, 1, 2, 0, 3, 2, 2, 2];
p_D = [1, 1, 2, 0, 0, 0, 1, 0, 2, 3, 3, 0, 0, 1, 1, 0, 3, 1, 0, 0, 1, 1, 1, 1, 0, 2, 1, 1, 1, 3, 2, 0, 1, 2, 1, 3, 3, 0, 1, 1, 0, 1, 1, 1, 2, 1, 1, 3, 2, 1, 1, 0, 1, 0, 0, 0, 0, 3, 0, 0, 2, 0, 1, 3, 1, 0, 0, 2, 3];
Delta = [
[0],
[0, 1, 3],
[0, 1],
[0],
[0],
[0, 1],
[0, 2, 1],
[0, 1, 3],
[0, 3, 1],
[0],
[0],
[0],
[0, 3],
[0, 1, 2],
[0, 1, 3],
[0, 3, 2],
[0, 1],
[0, 1, 1],
[0, 3],
[0],
[0, 3, 1],
[0, 3, 2],
[0, 2, 2],
[0, 2, 2],
[0, 2, 1],
[0, 3],
[0],
[0, 3, 2],
[0],
[0],
[0],
[0, 1],
[0, 3],
[0, 2, 2],
[0, 3],
[0, 2],
[0, 3, 2],
[0, 3],
[0, 1, 2],
[0, 2],
[0, 3, 3],
[0, 3, 3],
[0, 1],
[0, 2, 1],
[0],
[0, 1, 3],
[0],
[0, 2, 1],
[0, 1, 1],
[0, 2],
[0],
[0],
[0, 3],
[0],
[0, 2],
[0, 2],
[0, 3, 2],
[0, 1, 1],
[0],
[0],
[0, 2, 1],
[0, 3, 3],
[0, 1, 1],
[0, 3, 3],
[0],
[0, 1, 1],
[0, 2, 3],
[0, 3],
[0, 3]
];
e_A = [
[1],
[0, 0, 1],
[1, 1],
[1],
[0],
[1, 1],
[1, 1, 1],
[0, 1, 1],
[0, 1, 1],
[1],
[0],
[1],
[0, 1],
[1, 1, 1],
[1, 0, 0],
[0, 1, 1],
[0, 0],
[0, 0, 0],
[1, 1],
[1],
[0, 0, 0],
[1, 1, 1],
[1, 0, 1],
[1, 1, 0],
[0, 0, 1],
[1, 0],
[0],
[1, 0, 1],
[1],
[1],
[0],
[0, 1],
[1, 1],
[1, 0, 0],
[1, 1],
[0, 0],
[0, 1, 1],
[0, 1],
[1, 1, 0],
[0, 1],
[0, 1, 0],
[1, 1, 1],
[0, 0],
[1, 0, 1],
[1],
[1, 0, 1],
[1],
[1, 0, 1],
[1, 1, 0],
[0, 0],
[0],
[0],
[0, 0],
[0],
[0, 1],
[1, 0],
[1, 1, 0],
[0, 0, 0],
[1],
[0],
[0, 1, 1],
[0, 1, 1],
[1, 1, 0],
[0, 0, 1],
[1],
[0, 0, 0],
[1, 1, 1],
[0, 0],
[0, 1]
];
e_C = [
[0],
[1, 0, 0],
[1, 1],
[0],
[0],
[0, 1],
[0, 1, 0],
[0, 1, 0],
[0, 1, 0],
[1],
[1],
[1],
[0, 1],
[0, 1, 0],
[1, 0, 0],
[0, 1, 1],
[0, 1],
[1, 1, 0],
[1, 0],
[1],
[0, 0, 1],
[0, 1, 0],
[0, 0, 0],
[0, 1, 1],
[1, 0, 0],
[0, 1],
[1],
[0, 1, 0],
[1],
[0],
[1],
[0, 1],
[0, 1],
[1, 1, 0],
[0, 1],
[1, 0],
[0, 1, 0],
[0, 0],
[0, 1, 1],
[1, 0],
[0, 0, 0],
[0, 0, 0],
[1, 1],
[1, 1, 1],
[0],
[0, 1, 0],
[1],
[1, 0, 0],
[0, 1, 1],
[0, 0],
[0],
[0],
[0, 0],
[0],
[0, 0],
[1, 1],
[0, 0, 0],
[0, 1, 1],
[0],
[1],
[1, 0, 0],
[1, 1, 1],
[0, 0, 1],
[1, 0, 0],
[1],
[1, 1, 0],
[0, 0, 0],
[0, 1],
[1, 1]
];
